data;



param n := 10;
param m := 10;
param d := 2;
param c := 1;

param a := 1.7229;
param p := 1.024;
param ad := 0.573;
param pd := 0.747;

	
param dpc : 

	1			2 :=
	
1	0.490113271	5.286690821
2	0.913064505	0.145228462
3	0.052410019	0.137798616
4	0.113759762	0.079982235
5	0.059738321	3.978440796
6	0.158657778	1.222918221
7	0.134048258	0.101520072
8	0.284761066	0.068871092
9	0.057760001	2.433083243
10	0.048646025	0.542609476



;




param: 	num_cycles	 :=

1	1
2	1
3	1
4	1
5	1
6	1
7	1
8	1
9	1
10	1

;